\ENCODING=ISO-8859-1
\Problem name: 

Minimize
 obj: 6 y_0_1 + 52 y_0_2 + 13 y_0_3 + 18 y_0_4 + 29 y_0_5 + 6 y_1_0 + 46 y_1_2
      + 9 y_1_3 + 14 y_1_4 + 23 y_1_5 + 52 y_2_0 + 46 y_2_1 + 45 y_2_3
      + 50 y_2_4 + 43 y_2_5 + 13 y_3_0 + 9 y_3_1 + 45 y_3_2 + 5 y_3_4
      + 22 y_3_5 + 18 y_4_0 + 14 y_4_1 + 50 y_4_2 + 5 y_4_3 + 17 y_4_5
      + 29 y_5_0 + 23 y_5_1 + 43 y_5_2 + 22 y_5_3 + 17 y_5_4
Subject To
 c1:  y_0_1 + y_0_2 + y_0_3 + y_0_4 + y_0_5  = 1
 c2:  y_1_0 + y_1_2 + y_1_3 + y_1_4 + y_1_5  = 1
 c3:  y_2_0 + y_2_1 + y_2_3 + y_2_4 + y_2_5  = 1
 c4:  y_3_0 + y_3_1 + y_3_2 + y_3_4 + y_3_5  = 1
 c5:  y_4_0 + y_4_1 + y_4_2 + y_4_3 + y_4_5  = 1
 c6:  y_5_0 + y_5_1 + y_5_2 + y_5_3 + y_5_4  = 1
 c7:  y_1_0 + y_2_0 + y_3_0 + y_4_0 + y_5_0  = 1
 c8:  y_0_1 + y_2_1 + y_3_1 + y_4_1 + y_5_1  = 1
 c9:  y_0_2 + y_1_2 + y_3_2 + y_4_2 + y_5_2  = 1
 c10: y_0_3 + y_1_3 + y_2_3 + y_4_3 + y_5_3  = 1
 c11: y_0_4 + y_1_4 + y_2_4 + y_3_4 + y_5_4  = 1
 c12: y_0_5 + y_1_5 + y_2_5 + y_3_5 + y_4_5  = 1
 c13: y_0_5 + y_5_0 <= 1
 c14: y_0_4 + y_4_0 <= 1
 c15: y_0_4 + y_0_5 + y_4_0 + y_4_5 + y_5_0 + y_5_4 <= 2
 c16: y_0_3 + y_3_0 <= 1
 c17: y_0_3 + y_0_5 + y_3_0 + y_3_5 + y_5_0 + y_5_3 <= 2
 c18: y_0_3 + y_0_4 + y_3_0 + y_3_4 + y_4_0 + y_4_3 <= 2
 c19: y_0_3 + y_0_4 + y_0_5 + y_3_0 + y_3_4 + y_3_5 + y_4_0 + y_4_3 + y_4_5
      + y_5_0 + y_5_3 + y_5_4 <= 3
 c20: y_0_2 + y_2_0 <= 1
 c21: y_0_2 + y_0_5 + y_2_0 + y_2_5 + y_5_0 + y_5_2 <= 2
 c22: y_0_2 + y_0_4 + y_2_0 + y_2_4 + y_4_0 + y_4_2 <= 2
 c23: y_0_2 + y_0_4 + y_0_5 + y_2_0 + y_2_4 + y_2_5 + y_4_0 + y_4_2 + y_4_5
      + y_5_0 + y_5_2 + y_5_4 <= 3
 c24: y_0_2 + y_0_3 + y_2_0 + y_2_3 + y_3_0 + y_3_2 <= 2
 c25: y_0_2 + y_0_3 + y_0_5 + y_2_0 + y_2_3 + y_2_5 + y_3_0 + y_3_2 + y_3_5
      + y_5_0 + y_5_2 + y_5_3 <= 3
 c26: y_0_2 + y_0_3 + y_0_4 + y_2_0 + y_2_3 + y_2_4 + y_3_0 + y_3_2 + y_3_4
      + y_4_0 + y_4_2 + y_4_3 <= 3
 c27: y_0_2 + y_0_3 + y_0_4 + y_0_5 + y_2_0 + y_2_3 + y_2_4 + y_2_5 + y_3_0
      + y_3_2 + y_3_4 + y_3_5 + y_4_0 + y_4_2 + y_4_3 + y_4_5 + y_5_0 + y_5_2
      + y_5_3 + y_5_4 <= 4
 c28: y_0_1 + y_1_0 <= 1
 c29: y_0_1 + y_0_5 + y_1_0 + y_1_5 + y_5_0 + y_5_1 <= 2
 c30: y_0_1 + y_0_4 + y_1_0 + y_1_4 + y_4_0 + y_4_1 <= 2
 c31: y_0_1 + y_0_4 + y_0_5 + y_1_0 + y_1_4 + y_1_5 + y_4_0 + y_4_1 + y_4_5
      + y_5_0 + y_5_1 + y_5_4 <= 3
 c32: y_0_1 + y_0_3 + y_1_0 + y_1_3 + y_3_0 + y_3_1 <= 2
 c33: y_0_1 + y_0_3 + y_0_5 + y_1_0 + y_1_3 + y_1_5 + y_3_0 + y_3_1 + y_3_5
      + y_5_0 + y_5_1 + y_5_3 <= 3
 c34: y_0_1 + y_0_3 + y_0_4 + y_1_0 + y_1_3 + y_1_4 + y_3_0 + y_3_1 + y_3_4
      + y_4_0 + y_4_1 + y_4_3 <= 3
 c35: y_0_1 + y_0_3 + y_0_4 + y_0_5 + y_1_0 + y_1_3 + y_1_4 + y_1_5 + y_3_0
      + y_3_1 + y_3_4 + y_3_5 + y_4_0 + y_4_1 + y_4_3 + y_4_5 + y_5_0 + y_5_1
      + y_5_3 + y_5_4 <= 4
 c36: y_0_1 + y_0_2 + y_1_0 + y_1_2 + y_2_0 + y_2_1 <= 2
 c37: y_0_1 + y_0_2 + y_0_5 + y_1_0 + y_1_2 + y_1_5 + y_2_0 + y_2_1 + y_2_5
      + y_5_0 + y_5_1 + y_5_2 <= 3
 c38: y_0_1 + y_0_2 + y_0_4 + y_1_0 + y_1_2 + y_1_4 + y_2_0 + y_2_1 + y_2_4
      + y_4_0 + y_4_1 + y_4_2 <= 3
 c39: y_0_1 + y_0_2 + y_0_4 + y_0_5 + y_1_0 + y_1_2 + y_1_4 + y_1_5 + y_2_0
      + y_2_1 + y_2_4 + y_2_5 + y_4_0 + y_4_1 + y_4_2 + y_4_5 + y_5_0 + y_5_1
      + y_5_2 + y_5_4 <= 4
 c40: y_0_1 + y_0_2 + y_0_3 + y_1_0 + y_1_2 + y_1_3 + y_2_0 + y_2_1 + y_2_3
      + y_3_0 + y_3_1 + y_3_2 <= 3
 c41: y_0_1 + y_0_2 + y_0_3 + y_0_5 + y_1_0 + y_1_2 + y_1_3 + y_1_5 + y_2_0
      + y_2_1 + y_2_3 + y_2_5 + y_3_0 + y_3_1 + y_3_2 + y_3_5 + y_5_0 + y_5_1
      + y_5_2 + y_5_3 <= 4
 c42: y_0_1 + y_0_2 + y_0_3 + y_0_4 + y_1_0 + y_1_2 + y_1_3 + y_1_4 + y_2_0
      + y_2_1 + y_2_3 + y_2_4 + y_3_0 + y_3_1 + y_3_2 + y_3_4 + y_4_0 + y_4_1
      + y_4_2 + y_4_3 <= 4
Bounds
 0 <= y_0_1 <= 1
 0 <= y_0_2 <= 1
 0 <= y_0_3 <= 1
 0 <= y_0_4 <= 1
 0 <= y_0_5 <= 1
 0 <= y_1_0 <= 1
 0 <= y_1_2 <= 1
 0 <= y_1_3 <= 1
 0 <= y_1_4 <= 1
 0 <= y_1_5 <= 1
 0 <= y_2_0 <= 1
 0 <= y_2_1 <= 1
 0 <= y_2_3 <= 1
 0 <= y_2_4 <= 1
 0 <= y_2_5 <= 1
 0 <= y_3_0 <= 1
 0 <= y_3_1 <= 1
 0 <= y_3_2 <= 1
 0 <= y_3_4 <= 1
 0 <= y_3_5 <= 1
 0 <= y_4_0 <= 1
 0 <= y_4_1 <= 1
 0 <= y_4_2 <= 1
 0 <= y_4_3 <= 1
 0 <= y_4_5 <= 1
 0 <= y_5_0 <= 1
 0 <= y_5_1 <= 1
 0 <= y_5_2 <= 1
 0 <= y_5_3 <= 1
 0 <= y_5_4 <= 1
Binaries
 y_0_1  y_0_2  y_0_3  y_0_4  y_0_5  y_1_0  y_1_2  y_1_3  y_1_4  y_1_5  y_2_0 
 y_2_1  y_2_3  y_2_4  y_2_5  y_3_0  y_3_1  y_3_2  y_3_4  y_3_5  y_4_0  y_4_1 
 y_4_2  y_4_3  y_4_5  y_5_0  y_5_1  y_5_2  y_5_3  y_5_4 
End
